data;
param n:=50;
param w:=1 -17 2 88 3 -281 4 -17 5 195 6 202 7 -45 8 3 9 129 10 201 11 19 12 -153 13 80 14 -85 15 176 16 -72 17 -73 18 117 19 142 20 -81 21 -220 22 103 23 151 24 94 25 10 26 -265 27 187 28 -140 29 -159 30 162 31 28 32 -74 33 -248 34 -201 35 -150 36 -34 37 -282 38 168 39 -36 40 -16 41 123 42 92 43 113 44 35 45 151 46 37 47 124 48 -193 49 -53 50 -35;
